comment                                 
   1.00000000000000     
    11.8553260107530001    2.4228162836650000    0.0000000000000000
     0.0000000000000000   12.1530879014239996    0.0000000000000000
     0.0000000000000000    0.0000000000000000   11.2520899754550001
   Li   C 
    64    64
Direct
  0.0060044435759655 -0.0176117001693019  0.1561730359951723
  0.9857997661584178  0.9981788818231171  0.6413401249435399
  0.0174819531431477  0.4816335846300437  0.1816772647160234
  1.0087732974598489  0.5267357300627997  0.6534768563116031
  0.4730269802247464  0.0206418306894331  0.0875430231820997
  0.4798394233587089  0.9687310178643768  0.5886502024466804
  0.4894263085113180  0.5270143517168798  0.0760986165272572
  0.4879699216817853  0.5454722525665050  0.6141160979431158
 -0.0191408358968204  1.0347913859866607  0.3980535957714706
 -0.0318775677115570  0.0082570968270452  0.9076368370810307
  1.0191740799615556  0.5171384170919630  0.4178709150435550
  0.9948059548977186  0.4732042306754939  0.9229829408909067
  0.5099770848225382 -0.0268306414131795  0.3502873681046507
  0.4948375422983411  0.0021002593551320  0.8467426513878795
  0.5163970188628508  0.5149214225423830  0.3750421124730466
  0.5067972903035460  0.4927226594329322  0.8633015508006187
  1.0453235844405848  0.2365906585300239  0.1488101641264857
  0.9758939566861884  0.2563748534882564  0.6424090533702386
 -0.0066541497674816  0.7439993990772604  0.1411387688725960
  0.9547613301544930  0.7681047962825662  0.6404878872926841
  0.5160089552295505  0.2410084475762487  0.1228774546905275
  0.4853347843073056  0.2496397564736160  0.6116145028716279
  0.5005055757633827  0.7455467635474168  0.1148341303574798
  0.4872796238188521  0.7528254223866302  0.5972391819854370
  0.0286854255217619  0.2660184338032716  0.4085238559467453
  1.0167795665685171  0.2288374079025050  0.8652264020893069
 -0.0270173892705459  0.7633457271702775  0.3844514764204018
 -0.0148481264551972  0.7227951027006601  0.8833447425215504
  0.5042413274908979  0.2570571397154812  0.3636255773708922
  0.5101236563068936  0.2486209492188232  0.8438512106745182
  0.5015394442572549  0.7600726041080655  0.3407411407283039
  0.4908126827648073  0.7451909350403282  0.8486542110880080
  0.2397552529828008  1.0105785513722372  0.1365307290698860
  0.2342492070065122  0.9939508814116627  0.6371345948071597
  0.2668477505963893  0.4840839729193553  0.1115413133249416
  0.2411850062471442  0.5047472178826174  0.6192851161722991
  0.7376232838316473 -0.0081065926832933  0.1101373512967283
  0.7290761225756759  1.0115539226091479  0.6146556150497874
  0.7591120764163513  0.5181623010824401  0.1211278733070686
  0.7451109029613023  0.5101968690466634  0.6477323477734890
  0.2788852922628577  0.0226598104437987  0.3849338630894404
  0.2469767162044702 -0.0234258161696814  0.8802220198947110
  0.2736460164095081  0.4838136347501387  0.3482390735195934
  0.2493228578388349  0.4790562691192770  0.8637281788202377
  0.7390472479710116  1.0126694186381131  0.3529469851978381
  0.7437305122013967  0.9722260263986650  0.8701519428884713
  0.7579548704884496  0.4602688058118242  0.3757033445177831
  0.7703073908859335  0.5064218131746222  0.8758811772535886
  0.2847498163496897  0.2356157073555936  0.1115654680147299
  0.2596049719648740  0.2564226725525438  0.6367968015059499
  0.2308151521689271  0.7660715206437302  0.1078040890530073
  0.2278327780949098  0.7461465386876559  0.6136896351142808
  0.7865020767059386  0.2573283428147183  0.1276481274201353
  0.7343831261222780  0.2419298444144369  0.6255245087282012
  0.7514216618373633  0.7407106764179920  0.1249029455123987
  0.7445276331942351  0.7676914172743819  0.5886166313769517
  0.2508772524847542  0.2597492663147200  0.3945881119925198
  0.2727959628873500  0.2241247156583208  0.8571111599081210
  0.2698808216655247  0.7464995114922433  0.3815165212097631
  0.2439924214571658  0.7289341747505117  0.8687725022431103
  0.7695775647145805  0.2460985170664420  0.4016354409389663
  0.7659226710341778  0.2719118125487701  0.8788344167991916
  0.7332896717080449  0.7551065808349654  0.3580553591393517
  0.7167533146551767  0.7552505054869293  0.8721170222498515
  0.0813700829488653  0.0944275555260876  0.0225789771860331
  0.1743938677453323  0.1599239417377671  0.5003211926759835
  0.0848265213807310  0.5754498417137687  0.0029330547461207
  0.0985896255963926  0.6189502898644242  0.5476542349299006
  0.6793695177684641  0.1530127270703104 -0.0247551951420474
  0.6405703850343392  0.1384274941116042  0.5076381635528273
  0.6685869164157336  0.6415681266748016  0.0065543530620224
  0.5732622484980658  0.6214251672524614  0.4936279450145050
  0.1886473789045376  0.3789278542397601  0.2230535642611369
  0.1645417075130247  0.4032581484941473  0.7630627152274682
  0.1071630006925164  0.8544870339582976  0.2928284904235173
  0.1081312449767887  0.9176343961803617  0.7632000624231902
  0.6160790436358778  0.4039906288531039  0.1781495286006692
  0.6442037521845559  0.4338668805184142  0.7493395478056586
  0.6694184431816655  0.9017787994054293  0.2283547086835127
  0.6296127030198663  0.9096066007926558  0.7322804014776486
  0.1666432147017619  0.1367897411951905  0.9945606857143380
  0.0953041139397236  0.1193761543739837  0.5375121264192814
  0.1537915235158090  0.6426669078113866  1.0176467790427841
  0.1661213091401308  0.6593723832842289  0.4826717198331372
  0.5870815972118582  0.1165918060700512  0.9943922191348252
  0.5718192312093313  0.0707385795377670  0.4998136805486404
  0.5888297207511554  0.5945624903252391 -0.0280614819993138
  0.6649708970324915  0.6558971387776017  0.4878315397765758
  0.1215447812383794  0.3543050505217549  0.2979802657709715
  0.1041208697528497  0.3300242528608388  0.7583813354471235
  0.1844901913019072  0.9017317500457926  0.2578120540496142
  0.0520114754028294  0.8366709177277499  0.7585533975530915
  0.6234744656889131  0.3664855430016468  0.2830448862570210
  0.6077853012681772  0.3464717363124249  0.7246009300613353
  0.6011577010725020  0.8343036126855563  0.2341589315283034
  0.5823656968595099  0.8284647794898932  0.7086023665051380
  0.4250090993923308  0.1423378774988823  0.2672940008416931
  0.3483582572566876  0.0859962405382225  0.7452362069672522
  0.4024198041657724  0.6582119912607851  0.2159706176705953
  0.3276923400433340  0.5993056665145942  0.7653928112460752
  0.8562815959743765  0.1027991295073826  0.2543926578616989
  0.8285425599550277  0.0838212998243259  0.7318508094484404
  0.8538705952755187  0.5806806475785702  0.2654879608316836
  0.8555624562155641  0.6682683286363389  0.7288735122933079
  0.3756782147722721  0.3104124530413680  1.0198715931895310
  0.3416422706746228  0.3588948158183739  0.4975377393170024
  0.3489542257620182  0.8554072047630866 -0.0216650295758944
  0.3425694694518255  0.8756297555665619  0.5256897050171280
  0.8453459513686870  0.3696642381790233  0.9956843437862621
  0.8549938924543440  0.3536586598325379  0.5219591329160058
  0.8999389751917244  0.8881702517112822  1.0239950382596801
  0.9076605839848333  0.9165331450498574  0.5020323538568083
  0.3508181786672595  0.0908131165175684  0.2348953124791212
  0.4158562866512205  0.1541189512129389  0.7437731698710687
  0.3581003981045087  0.5743548393430792  0.2339164533112830
  0.3950526775719316  0.6573544459712326  0.7254516400073291
  0.9159624321010340  0.1737749279596080  0.2677882189645730
  0.8854074511680545  0.1589826399396764  0.7443854131904405
  0.9225474006929109  0.6435161053800835  0.2855036478241378
  0.8559891016324035  0.5825447480648901  0.7865351291443546
  0.3986120280589300  0.3937660596952196 -0.0303926589903637
  0.4018256575784448  0.4307137796993307  0.4871943681565268
  0.4162374969203528  0.9172934726073033  0.9646736416219971
  0.4051435413847748  0.8821247824812352  0.4388601506745686
  0.9054026629092168  0.3892608152748314  1.0861113122786934
  0.9237043857911841  0.4174841623309397  0.5204732739835466
  0.8266220756690841  0.8250955900499646  0.0170402885982206
  0.8290349888127807  0.8627368277779919  0.4940765278750474
 
  0.43019091E-02  0.72390214E-03  0.10179715E-01
  0.65056646E-02 -0.19940857E-02  0.87118368E-02
 -0.15045460E-02 -0.14024090E-01  0.10737548E-02
  0.32074076E-02  0.45085659E-02 -0.74726961E-02
 -0.59412735E-02  0.14969668E-02 -0.77118906E-02
 -0.78028728E-02  0.89817934E-02  0.76379434E-02
  0.11895508E-01  0.87269061E-03  0.14536758E-02
  0.24007012E-02  0.10222201E-02 -0.46899587E-03
  0.88699416E-03  0.90736616E-02  0.45687125E-02
 -0.11996849E-01 -0.17270761E-02 -0.16777262E-02
  0.26493740E-02  0.53413958E-03  0.17701513E-01
  0.11172621E-01  0.99480495E-03  0.68283710E-02
  0.87891033E-02  0.74742985E-02  0.14114901E-01
 -0.12861905E-02 -0.55431805E-02  0.17919350E-01
  0.47419909E-02 -0.64110099E-02 -0.10969859E-01
 -0.38984821E-02 -0.27681163E-02  0.44304217E-02
 -0.80758261E-02 -0.11077295E-01  0.16739349E-01
 -0.33289905E-02  0.36921852E-02  0.15330753E-02
  0.21022260E-01  0.85441989E-02 -0.15693826E-01
 -0.12430411E-01  0.98984365E-02 -0.82835156E-02
 -0.23988422E-02 -0.40496175E-02 -0.58378261E-02
 -0.83814228E-02  0.13346169E-02 -0.92301284E-02
 -0.29787037E-02 -0.71179788E-02  0.48011473E-02
 -0.10165152E-01 -0.69706739E-02 -0.48432482E-02
  0.25908279E-01  0.10105324E-01 -0.44951422E-03
  0.80538300E-02  0.68476739E-02  0.30762983E-03
  0.14188065E-01  0.24302613E-02  0.15402360E-01
 -0.78932988E-02 -0.33791396E-02 -0.87594408E-02
 -0.49905840E-03  0.66621210E-02 -0.52311391E-03
  0.93495499E-02  0.53140838E-03 -0.11863592E-01
  0.16756223E-02  0.46078698E-02 -0.18775744E-02
 -0.58785501E-02 -0.93146870E-02  0.94270365E-03
 -0.11254334E-01  0.71815448E-02 -0.54269387E-02
 -0.35746115E-03  0.64369637E-02 -0.10795975E-01
 -0.49833846E-02 -0.13950418E-01 -0.78724414E-03
  0.10980443E-02 -0.93021617E-02 -0.24702363E-03
  0.73412357E-02 -0.24491880E-02 -0.58289930E-02
  0.43431005E-03 -0.46141356E-02 -0.97098458E-04
 -0.20564291E-01  0.75841682E-02 -0.33538609E-02
  0.38052205E-02 -0.64327958E-03 -0.56180947E-02
  0.65609047E-02  0.81128958E-02 -0.12343994E-01
  0.61973181E-02  0.44053525E-02  0.74894502E-02
  0.59934144E-02 -0.33246497E-03  0.28878379E-02
 -0.19503287E-02 -0.53893844E-02  0.19055906E-02
  0.37420713E-02  0.76523967E-03  0.73495958E-02
 -0.92147343E-02 -0.32031967E-02 -0.18123191E-02
 -0.37939030E-02  0.81153736E-02  0.15512826E-02
 -0.62257209E-02  0.23010121E-02  0.15171204E-02
 -0.33332503E-02  0.23054415E-02 -0.28307518E-02
 -0.48686340E-02  0.12934763E-01  0.58679958E-02
 -0.80629337E-02  0.15220193E-02 -0.90163579E-03
  0.46141819E-02  0.19725263E-01 -0.11230045E-01
 -0.69257848E-03  0.79095815E-02  0.58671254E-02
  0.23458575E-02  0.10533598E-02  0.85050885E-02
 -0.59428380E-02 -0.96395667E-02 -0.11439166E-01
 -0.22716528E-02  0.16716306E-01  0.13058269E-01
 -0.12726601E-01 -0.23141838E-01 -0.17166258E-01
  0.58218631E-02  0.50325524E-02  0.82466254E-02
 -0.24646165E-02  0.74062125E-02 -0.82392773E-02
 -0.16432666E-01 -0.16062296E-01  0.41589986E-02
  0.92519325E-02  0.13972114E-02 -0.99180231E-02
 -0.48672865E-02 -0.50794292E-02 -0.37254567E-02
  0.46086084E-02  0.60583463E-02 -0.15060826E-01
 -0.95467491E-03  0.11028730E-02  0.65289942E-02
 -0.27494969E-02  0.85445830E-02 -0.56271595E-02
 -0.34729185E-03 -0.43868899E-03 -0.89797684E-02
  0.26801785E-02 -0.10574271E-01  0.40517656E-02
  0.52101022E-02 -0.79277076E-02  0.43906252E-02
 -0.82550371E-02 -0.93238382E-03 -0.71945556E-02
  0.62096670E-02 -0.11218099E-01 -0.13981598E-01
  0.97470715E-02  0.70667675E-02  0.71233023E-03
 -0.64029211E-02 -0.10336078E-02 -0.10801163E-02
  0.17246337E-01  0.80068166E-03 -0.39504308E-02
 -0.11099669E-01  0.54327774E-02  0.13735341E-01
 -0.65628623E-02  0.10465404E-01  0.63729706E-03
  0.58109271E-02  0.13116195E-01  0.46808704E-02
  0.20807813E-02 -0.11615572E-02 -0.31425367E-02
  0.57021958E-02 -0.61289055E-02  0.16678983E-02
  0.58421368E-02 -0.31610564E-02 -0.11713337E-02
 -0.25034938E-02 -0.86233258E-03  0.65029591E-03
 -0.78166819E-02  0.10245014E-01  0.25641113E-02
 -0.26431487E-02 -0.12002431E-01 -0.77174757E-02
 -0.19239253E-02 -0.32345857E-02 -0.17516412E-02
 -0.28622472E-02 -0.63498844E-02  0.67319527E-02
  0.42966690E-03 -0.63076134E-02  0.46984664E-02
 -0.47424163E-02  0.59172383E-02 -0.21370165E-02
  0.40789732E-02  0.43220180E-02 -0.77699444E-03
  0.27643110E-02  0.54997636E-02  0.78854516E-02
  0.67667405E-02 -0.22178730E-02 -0.72793869E-02
  0.77419796E-03 -0.81335857E-02  0.34367996E-03
 -0.12830989E-01 -0.86380110E-02  0.26236861E-02
 -0.93343645E-03  0.11074936E-01  0.32745983E-02
 -0.12295672E-02 -0.90759912E-02 -0.95433984E-03
 -0.10476353E-01 -0.74837272E-02 -0.17609224E-02
  0.98713079E-03 -0.64929578E-02  0.20563318E-02
  0.47371855E-02 -0.25986011E-02 -0.56376352E-02
  0.66256375E-02 -0.19458431E-03 -0.62059877E-02
 -0.62024215E-02 -0.34264621E-02  0.95137544E-02
 -0.38101956E-02 -0.37136693E-02 -0.73320467E-02
 -0.43514360E-02  0.90211455E-02 -0.25845775E-02
  0.43045721E-03 -0.18779822E-02  0.26842330E-02
  0.15752714E-01  0.18688631E-03 -0.16379364E-02
 -0.56646599E-02  0.14885813E-04  0.95586083E-02
 -0.16438838E-02 -0.65340668E-02  0.96071178E-03
 -0.39638252E-02 -0.41987147E-02  0.15013673E-02
  0.11013286E-02  0.18140955E-04 -0.44949531E-03
  0.17315620E-02 -0.11462810E-01 -0.10834219E-01
 -0.10243552E-01 -0.16904131E-02 -0.47041403E-02
  0.42475330E-03 -0.43511714E-03  0.45065378E-02
  0.16533252E-02  0.92062380E-02 -0.25060856E-02
  0.61909554E-02 -0.46563131E-02 -0.17579213E-02
 -0.32201220E-02  0.94568371E-02 -0.69410406E-03
  0.44718360E-02 -0.58565857E-02 -0.34706245E-02
  0.12445018E-01 -0.19579684E-02 -0.45695573E-02
  0.39753246E-02  0.24600788E-02 -0.15356848E-02
 -0.22815507E-02  0.45995042E-02 -0.77276182E-02
 -0.55453819E-02  0.40579213E-02  0.63632033E-02
  0.66199260E-02  0.39537483E-03  0.80075277E-02
 -0.74320491E-02  0.45658408E-02 -0.70944483E-02
 -0.53949080E-02 -0.27818786E-02 -0.37714618E-02
 -0.51473329E-02  0.55839176E-03  0.52006831E-02
 -0.22256688E-02  0.42826204E-02  0.96154636E-02
  0.47221225E-02 -0.34408463E-03  0.20913572E-02
 -0.12489188E-02  0.62015364E-02  0.44301987E-02
  0.51904436E-02 -0.20939819E-02  0.30125401E-02
  0.15448325E-02  0.10294179E-01  0.89815412E-02
  0.85466824E-02 -0.83871194E-02  0.64250341E-02
 -0.89991394E-03 -0.15289156E-02  0.41685012E-02
 
           1
  0.250000000000000     
 -0.68936028E+00  0.84336241E-03  0.10910006E-02 -0.69032746E+00
  0.60951604E-02  0.98238511E+00  0.15639921E+00
  0.98593695E+00  0.99811051E+00  0.64153369E+00
  0.17450226E-01  0.48135142E+00  0.18170112E+00
  0.88409339E-02  0.52681499E+00  0.65331083E+00
  0.47290169E+00  0.20697602E-01  0.87371680E-01
  0.47967488E+00  0.96894858E+00  0.58881990E+00
  0.48967716E+00  0.52698230E+00  0.76130914E-01
  0.48802055E+00  0.54548319E+00  0.61410568E+00
  0.98087787E+00  0.34974311E-01  0.39815510E+00
  0.96786945E+00  0.82720038E-02  0.90759956E+00
  0.19229949E-01  0.51713827E+00  0.41826421E+00
  0.99504156E+00  0.47317773E+00  0.92313465E+00
  0.51016243E+00  0.97328616E+00  0.35060097E+00
  0.49481042E+00  0.19916382E-02  0.84714079E+00
  0.51649702E+00  0.51476961E+00  0.37479838E+00
  0.50671508E+00  0.49268211E+00  0.86339999E+00
  0.45153285E-01  0.23639674E+00  0.14918208E+00
  0.97582376E+00  0.25646480E+00  0.64244312E+00
  0.99378916E+00  0.74408678E+00  0.14079008E+00
  0.95449920E+00  0.76836067E+00  0.64030384E+00
  0.51595837E+00  0.24093523E+00  0.12274775E+00
  0.48515804E+00  0.24970245E+00  0.61140943E+00
  0.50044276E+00  0.74541286E+00  0.11494080E+00
  0.48706527E+00  0.75272476E+00  0.59713157E+00
  0.29231768E-01  0.26611739E+00  0.40851387E+00
  0.16949402E-01  0.22894441E+00  0.86523324E+00
  0.97328180E+00  0.76333607E+00  0.38479369E+00
  0.98498542E+00  0.72275877E+00  0.88315012E+00
  0.50423080E+00  0.25719628E+00  0.36361395E+00
  0.51032082E+00  0.24859258E+00  0.84358762E+00
  0.50157478E+00  0.76016035E+00  0.34069942E+00
  0.49068872E+00  0.74502404E+00  0.84867516E+00
  0.23951793E+00  0.10773595E-01  0.13641015E+00
  0.23424167E+00  0.99408480E+00  0.63689473E+00
  0.26674266E+00  0.48381795E+00  0.11152382E+00
  0.24120816E+00  0.50455125E+00  0.61927963E+00
  0.73777809E+00  0.99181216E+00  0.11000784E+00
  0.72908528E+00  0.11457180E-01  0.61465346E+00
  0.75867843E+00  0.51840477E+00  0.12105336E+00
  0.74519115E+00  0.51016764E+00  0.64760752E+00
  0.27902365E+00  0.22799118E-01  0.38465960E+00
  0.24710740E+00  0.97663875E+00  0.88038842E+00
  0.27377240E+00  0.48378160E+00  0.34830324E+00
  0.24928173E+00  0.47895360E+00  0.86377052E+00
  0.73912616E+00  0.12669429E-01  0.35311028E+00
  0.74353620E+00  0.97219887E+00  0.87011168E+00
  0.75787487E+00  0.46045170E+00  0.37573781E+00
  0.77017611E+00  0.50649532E+00  0.87591488E+00
  0.28467953E+00  0.23567715E+00  0.11150257E+00
  0.25950230E+00  0.25670922E+00  0.63692718E+00
  0.23064512E+00  0.76613673E+00  0.10778406E+00
  0.22793008E+00  0.74653291E+00  0.61344012E+00
  0.78648747E+00  0.25749396E+00  0.12777848E+00
  0.73443259E+00  0.24194165E+00  0.62571348E+00
  0.75129634E+00  0.74053737E+00  0.12464879E+00
  0.74447973E+00  0.76804484E+00  0.58890676E+00
  0.25060888E+00  0.25932672E+00  0.39420671E+00
  0.27291873E+00  0.22420376E+00  0.85729438E+00
  0.26982885E+00  0.74666223E+00  0.38133346E+00
  0.24364590E+00  0.72867284E+00  0.86886491E+00
  0.76977267E+00  0.24608836E+00  0.40141508E+00
  0.76582003E+00  0.27182779E+00  0.87875164E+00
  0.73338686E+00  0.75521183E+00  0.35772074E+00
  0.71673318E+00  0.75527721E+00  0.87226208E+00
  0.81312103E-01  0.94614884E-01  0.22453952E-01
  0.17438654E+00  0.15991638E+00  0.50012168E+00
  0.84883040E-01  0.57522105E+00  0.30230773E-02
  0.98699494E-01  0.61876531E+00  0.54775179E+00
  0.67919544E+00  0.15302825E+00  0.97508496E+00
  0.64070133E+00  0.13817062E+00  0.50732752E+00
  0.66879246E+00  0.64167252E+00  0.65701797E-02
  0.57312723E+00  0.62143082E+00  0.49360395E+00
  0.18901106E+00  0.37887182E+00  0.22296579E+00
  0.16430764E+00  0.40341657E+00  0.76336789E+00
  0.10702461E+00  0.85472991E+00  0.29284265E+00
  0.10825378E+00  0.91787978E+00  0.76330406E+00
  0.61612292E+00  0.40395799E+00  0.17807971E+00
  0.64432400E+00  0.43371683E+00  0.74937661E+00
  0.66954164E+00  0.90168921E+00  0.22832868E+00
  0.62955991E+00  0.90959939E+00  0.73229485E+00
  0.16647838E+00  0.13703335E+00  0.99461766E+00
  0.95248376E-01  0.11914037E+00  0.53734066E+00
  0.15375095E+00  0.64260846E+00  0.17607861E-01
  0.16606095E+00  0.65925379E+00  0.48282129E+00
  0.58709066E+00  0.11646025E+00  0.99449661E+00
  0.57171923E+00  0.70880239E-01  0.49976620E+00
  0.58891574E+00  0.59463425E+00  0.97192125E+00
  0.66502919E+00  0.65599865E+00  0.48800674E+00
  0.12168748E+00  0.35423098E+00  0.29781853E+00
  0.10413720E+00  0.32985368E+00  0.75838897E+00
  0.18421962E+00  0.90160800E+00  0.25787035E+00
  0.51991791E-01  0.83690266E+00  0.75862615E+00
  0.62344854E+00  0.36630401E+00  0.28302368E+00
  0.60756438E+00  0.34636183E+00  0.72456181E+00
  0.60117852E+00  0.83416590E+00  0.23420462E+00
  0.58246559E+00  0.82839141E+00  0.70847711E+00
  0.42514882E+00  0.14230602E+00  0.26715612E+00
  0.34822746E+00  0.85951830E-01  0.74544758E+00
  0.40233946E+00  0.65815162E+00  0.21580771E+00
  0.32760058E+00  0.59950953E+00  0.76533539E+00
  0.85629067E+00  0.10275869E+00  0.25445230E+00
  0.82887475E+00  0.83758920E-01  0.73181442E+00
  0.85375114E+00  0.58070477E+00  0.26570033E+00
  0.85552779E+00  0.66814083E+00  0.72889486E+00
  0.37559463E+00  0.31034275E+00  0.19904951E-01
  0.34166550E+00  0.35889056E+00  0.49752775E+00
  0.34899074E+00  0.85516412E+00  0.97809425E+00
  0.34235346E+00  0.87563805E+00  0.52558519E+00
  0.84535491E+00  0.36965350E+00  0.99578447E+00
  0.85502876E+00  0.35384109E+00  0.52190345E+00
  0.90006953E+00  0.88804844E+00  0.23955981E-01
  0.90759268E+00  0.91674122E+00  0.50201693E+00
  0.35091248E+00  0.90673842E-01  0.23481820E+00
  0.41611872E+00  0.15402636E+00  0.74367164E+00
  0.35818423E+00  0.57438873E+00  0.23388233E+00
  0.39500457E+00  0.65745865E+00  0.72527995E+00
  0.91584549E+00  0.17388172E+00  0.26792960E+00
  0.88554705E+00  0.15896294E+00  0.74456333E+00
  0.92239068E+00  0.64364127E+00  0.28534602E+00
  0.85587534E+00  0.58251020E+00  0.78645133E+00
  0.39850348E+00  0.39379919E+00  0.96972289E+00
  0.40177872E+00  0.43081123E+00  0.48740801E+00
  0.41633708E+00  0.91726654E+00  0.96472011E+00
  0.40511720E+00  0.88225760E+00  0.43895858E+00
  0.90551212E+00  0.38919592E+00  0.86178245E-01
  0.92373696E+00  0.41768943E+00  0.52067283E+00
  0.82680230E+00  0.82488713E+00  0.17183041E-01
  0.82901601E+00  0.86270916E+00  0.49416914E+00
  0.00000000E+00  0.00000000E+00  0.00000000E+00
  0.00000000E+00  0.00000000E+00  0.00000000E+00
  0.00000000E+00  0.00000000E+00  0.00000000E+00
  0.00000000E+00  0.00000000E+00  0.00000000E+00
  0.00000000E+00  0.00000000E+00  0.00000000E+00
  0.00000000E+00  0.00000000E+00  0.00000000E+00
  0.00000000E+00  0.00000000E+00  0.00000000E+00
  0.00000000E+00  0.00000000E+00  0.00000000E+00
  0.00000000E+00  0.00000000E+00  0.00000000E+00
  0.00000000E+00  0.00000000E+00  0.00000000E+00
  0.00000000E+00  0.00000000E+00  0.00000000E+00
  0.00000000E+00  0.00000000E+00  0.00000000E+00
  0.00000000E+00  0.00000000E+00  0.00000000E+00
  0.00000000E+00  0.00000000E+00  0.00000000E+00
  0.00000000E+00  0.00000000E+00  0.00000000E+00
  0.00000000E+00  0.00000000E+00  0.00000000E+00
  0.00000000E+00  0.00000000E+00  0.00000000E+00
  0.00000000E+00  0.00000000E+00  0.00000000E+00
  0.00000000E+00  0.00000000E+00  0.00000000E+00
  0.00000000E+00  0.00000000E+00  0.00000000E+00
  0.00000000E+00  0.00000000E+00  0.00000000E+00
  0.00000000E+00  0.00000000E+00  0.00000000E+00
  0.00000000E+00  0.00000000E+00  0.00000000E+00
  0.00000000E+00  0.00000000E+00  0.00000000E+00
  0.00000000E+00  0.00000000E+00  0.00000000E+00
  0.00000000E+00  0.00000000E+00  0.00000000E+00
  0.00000000E+00  0.00000000E+00  0.00000000E+00
  0.00000000E+00  0.00000000E+00  0.00000000E+00
  0.00000000E+00  0.00000000E+00  0.00000000E+00
  0.00000000E+00  0.00000000E+00  0.00000000E+00
  0.00000000E+00  0.00000000E+00  0.00000000E+00
  0.00000000E+00  0.00000000E+00  0.00000000E+00
  0.00000000E+00  0.00000000E+00  0.00000000E+00
  0.00000000E+00  0.00000000E+00  0.00000000E+00
  0.00000000E+00  0.00000000E+00  0.00000000E+00
  0.00000000E+00  0.00000000E+00  0.00000000E+00
  0.00000000E+00  0.00000000E+00  0.00000000E+00
  0.00000000E+00  0.00000000E+00  0.00000000E+00
  0.00000000E+00  0.00000000E+00  0.00000000E+00
  0.00000000E+00  0.00000000E+00  0.00000000E+00
  0.00000000E+00  0.00000000E+00  0.00000000E+00
  0.00000000E+00  0.00000000E+00  0.00000000E+00
  0.00000000E+00  0.00000000E+00  0.00000000E+00
  0.00000000E+00  0.00000000E+00  0.00000000E+00
  0.00000000E+00  0.00000000E+00  0.00000000E+00
  0.00000000E+00  0.00000000E+00  0.00000000E+00
  0.00000000E+00  0.00000000E+00  0.00000000E+00
  0.00000000E+00  0.00000000E+00  0.00000000E+00
  0.00000000E+00  0.00000000E+00  0.00000000E+00
  0.00000000E+00  0.00000000E+00  0.00000000E+00
  0.00000000E+00  0.00000000E+00  0.00000000E+00
  0.00000000E+00  0.00000000E+00  0.00000000E+00
  0.00000000E+00  0.00000000E+00  0.00000000E+00
  0.00000000E+00  0.00000000E+00  0.00000000E+00
  0.00000000E+00  0.00000000E+00  0.00000000E+00
  0.00000000E+00  0.00000000E+00  0.00000000E+00
  0.00000000E+00  0.00000000E+00  0.00000000E+00
  0.00000000E+00  0.00000000E+00  0.00000000E+00
  0.00000000E+00  0.00000000E+00  0.00000000E+00
  0.00000000E+00  0.00000000E+00  0.00000000E+00
  0.00000000E+00  0.00000000E+00  0.00000000E+00
  0.00000000E+00  0.00000000E+00  0.00000000E+00
  0.00000000E+00  0.00000000E+00  0.00000000E+00
  0.00000000E+00  0.00000000E+00  0.00000000E+00
  0.00000000E+00  0.00000000E+00  0.00000000E+00
  0.00000000E+00  0.00000000E+00  0.00000000E+00
  0.00000000E+00  0.00000000E+00  0.00000000E+00
  0.00000000E+00  0.00000000E+00  0.00000000E+00
  0.00000000E+00  0.00000000E+00  0.00000000E+00
  0.00000000E+00  0.00000000E+00  0.00000000E+00
  0.00000000E+00  0.00000000E+00  0.00000000E+00
  0.00000000E+00  0.00000000E+00  0.00000000E+00
  0.00000000E+00  0.00000000E+00  0.00000000E+00
  0.00000000E+00  0.00000000E+00  0.00000000E+00
  0.00000000E+00  0.00000000E+00  0.00000000E+00
  0.00000000E+00  0.00000000E+00  0.00000000E+00
  0.00000000E+00  0.00000000E+00  0.00000000E+00
  0.00000000E+00  0.00000000E+00  0.00000000E+00
  0.00000000E+00  0.00000000E+00  0.00000000E+00
  0.00000000E+00  0.00000000E+00  0.00000000E+00
  0.00000000E+00  0.00000000E+00  0.00000000E+00
  0.00000000E+00  0.00000000E+00  0.00000000E+00
  0.00000000E+00  0.00000000E+00  0.00000000E+00
  0.00000000E+00  0.00000000E+00  0.00000000E+00
  0.00000000E+00  0.00000000E+00  0.00000000E+00
  0.00000000E+00  0.00000000E+00  0.00000000E+00
  0.00000000E+00  0.00000000E+00  0.00000000E+00
  0.00000000E+00  0.00000000E+00  0.00000000E+00
  0.00000000E+00  0.00000000E+00  0.00000000E+00
  0.00000000E+00  0.00000000E+00  0.00000000E+00
  0.00000000E+00  0.00000000E+00  0.00000000E+00
  0.00000000E+00  0.00000000E+00  0.00000000E+00
  0.00000000E+00  0.00000000E+00  0.00000000E+00
  0.00000000E+00  0.00000000E+00  0.00000000E+00
  0.00000000E+00  0.00000000E+00  0.00000000E+00
  0.00000000E+00  0.00000000E+00  0.00000000E+00
  0.00000000E+00  0.00000000E+00  0.00000000E+00
  0.00000000E+00  0.00000000E+00  0.00000000E+00
  0.00000000E+00  0.00000000E+00  0.00000000E+00
  0.00000000E+00  0.00000000E+00  0.00000000E+00
  0.00000000E+00  0.00000000E+00  0.00000000E+00
  0.00000000E+00  0.00000000E+00  0.00000000E+00
  0.00000000E+00  0.00000000E+00  0.00000000E+00
  0.00000000E+00  0.00000000E+00  0.00000000E+00
  0.00000000E+00  0.00000000E+00  0.00000000E+00
  0.00000000E+00  0.00000000E+00  0.00000000E+00
  0.00000000E+00  0.00000000E+00  0.00000000E+00
  0.00000000E+00  0.00000000E+00  0.00000000E+00
  0.00000000E+00  0.00000000E+00  0.00000000E+00
  0.00000000E+00  0.00000000E+00  0.00000000E+00
  0.00000000E+00  0.00000000E+00  0.00000000E+00
  0.00000000E+00  0.00000000E+00  0.00000000E+00
  0.00000000E+00  0.00000000E+00  0.00000000E+00
  0.00000000E+00  0.00000000E+00  0.00000000E+00
  0.00000000E+00  0.00000000E+00  0.00000000E+00
  0.00000000E+00  0.00000000E+00  0.00000000E+00
  0.00000000E+00  0.00000000E+00  0.00000000E+00
  0.00000000E+00  0.00000000E+00  0.00000000E+00
  0.00000000E+00  0.00000000E+00  0.00000000E+00
  0.00000000E+00  0.00000000E+00  0.00000000E+00
  0.00000000E+00  0.00000000E+00  0.00000000E+00
  0.00000000E+00  0.00000000E+00  0.00000000E+00
  0.00000000E+00  0.00000000E+00  0.00000000E+00
  0.00000000E+00  0.00000000E+00  0.00000000E+00
  0.00000000E+00  0.00000000E+00  0.00000000E+00
  0.00000000E+00  0.00000000E+00  0.00000000E+00
  0.00000000E+00  0.00000000E+00  0.00000000E+00
  0.00000000E+00  0.00000000E+00  0.00000000E+00
  0.00000000E+00  0.00000000E+00  0.00000000E+00
  0.00000000E+00  0.00000000E+00  0.00000000E+00
  0.00000000E+00  0.00000000E+00  0.00000000E+00
  0.00000000E+00  0.00000000E+00  0.00000000E+00
  0.00000000E+00  0.00000000E+00  0.00000000E+00
  0.00000000E+00  0.00000000E+00  0.00000000E+00
  0.00000000E+00  0.00000000E+00  0.00000000E+00
  0.00000000E+00  0.00000000E+00  0.00000000E+00
  0.00000000E+00  0.00000000E+00  0.00000000E+00
  0.00000000E+00  0.00000000E+00  0.00000000E+00
  0.00000000E+00  0.00000000E+00  0.00000000E+00
  0.00000000E+00  0.00000000E+00  0.00000000E+00
  0.00000000E+00  0.00000000E+00  0.00000000E+00
  0.00000000E+00  0.00000000E+00  0.00000000E+00
  0.00000000E+00  0.00000000E+00  0.00000000E+00
  0.00000000E+00  0.00000000E+00  0.00000000E+00
  0.00000000E+00  0.00000000E+00  0.00000000E+00
  0.00000000E+00  0.00000000E+00  0.00000000E+00
  0.00000000E+00  0.00000000E+00  0.00000000E+00
  0.00000000E+00  0.00000000E+00  0.00000000E+00
  0.00000000E+00  0.00000000E+00  0.00000000E+00
  0.00000000E+00  0.00000000E+00  0.00000000E+00
  0.00000000E+00  0.00000000E+00  0.00000000E+00
  0.00000000E+00  0.00000000E+00  0.00000000E+00
  0.00000000E+00  0.00000000E+00  0.00000000E+00
  0.00000000E+00  0.00000000E+00  0.00000000E+00
  0.00000000E+00  0.00000000E+00  0.00000000E+00
  0.00000000E+00  0.00000000E+00  0.00000000E+00
  0.00000000E+00  0.00000000E+00  0.00000000E+00
  0.00000000E+00  0.00000000E+00  0.00000000E+00
  0.00000000E+00  0.00000000E+00  0.00000000E+00
  0.00000000E+00  0.00000000E+00  0.00000000E+00
  0.00000000E+00  0.00000000E+00  0.00000000E+00
  0.00000000E+00  0.00000000E+00  0.00000000E+00
  0.00000000E+00  0.00000000E+00  0.00000000E+00
  0.00000000E+00  0.00000000E+00  0.00000000E+00
  0.00000000E+00  0.00000000E+00  0.00000000E+00
  0.00000000E+00  0.00000000E+00  0.00000000E+00
  0.00000000E+00  0.00000000E+00  0.00000000E+00
  0.00000000E+00  0.00000000E+00  0.00000000E+00
  0.00000000E+00  0.00000000E+00  0.00000000E+00
  0.00000000E+00  0.00000000E+00  0.00000000E+00
  0.00000000E+00  0.00000000E+00  0.00000000E+00
  0.00000000E+00  0.00000000E+00  0.00000000E+00
  0.00000000E+00  0.00000000E+00  0.00000000E+00
  0.00000000E+00  0.00000000E+00  0.00000000E+00
  0.00000000E+00  0.00000000E+00  0.00000000E+00
  0.00000000E+00  0.00000000E+00  0.00000000E+00
  0.00000000E+00  0.00000000E+00  0.00000000E+00
  0.00000000E+00  0.00000000E+00  0.00000000E+00
  0.00000000E+00  0.00000000E+00  0.00000000E+00
  0.00000000E+00  0.00000000E+00  0.00000000E+00
  0.00000000E+00  0.00000000E+00  0.00000000E+00
  0.00000000E+00  0.00000000E+00  0.00000000E+00
  0.00000000E+00  0.00000000E+00  0.00000000E+00
  0.00000000E+00  0.00000000E+00  0.00000000E+00
  0.00000000E+00  0.00000000E+00  0.00000000E+00
  0.00000000E+00  0.00000000E+00  0.00000000E+00
  0.00000000E+00  0.00000000E+00  0.00000000E+00
  0.00000000E+00  0.00000000E+00  0.00000000E+00