BCT CuFeS2 (Chalcopyrite)               
   1.00000000000000     
    -2.6444999999999999    2.6444999999999999    5.2115000000120499
     2.6444999999999999   -2.6444999999999999    5.2115000000120499
     2.6444999999999999    2.6444999999999999   -5.2115000000120499
   Cu   Fe   S 
     2     2     4
Direct
  0.0000000000000000  0.0000000000000000  0.0000000000000000
  0.7500000000000000  0.2500000000000000  0.5000000000000000
  0.5000000000000000  0.5000000000000000  0.0000000000000000
  0.2500000000000000  0.7500000000000000  0.5000000000000000
  0.3750000000000000  0.3823999999999970  0.5073999999999970
  0.8750000000000000  0.8676000000000030  0.4926000000000030
  0.6176000000000030  0.1250000000000000  0.9926000000000030
  0.1323999999999970  0.6250000000000000  0.0073999999999970
 
  0.00000000E+00  0.00000000E+00  0.00000000E+00
  0.00000000E+00  0.00000000E+00  0.00000000E+00
  0.00000000E+00  0.00000000E+00  0.00000000E+00
  0.00000000E+00  0.00000000E+00  0.00000000E+00
  0.00000000E+00  0.00000000E+00  0.00000000E+00
  0.00000000E+00  0.00000000E+00  0.00000000E+00
  0.00000000E+00  0.00000000E+00  0.00000000E+00
  0.00000000E+00  0.00000000E+00  0.00000000E+00
