k-points for bandstructure G-X-Y-E-G-Z-E1-N-P-Y1-Z X-P
 4
line
reciprocal
  0.00000  0.00000  0.00000
  0.00000  0.00000  0.50000

  0.00000  0.00000  0.50000
 -0.12875  0.12875  0.50000

 -0.12875  0.12875  0.50000
 -0.31437  0.31437  0.31437

 -0.31437  0.31437  0.31437
  0.00000  0.00000  0.00000
 
  0.00000  0.00000  0.00000
  0.50000  0.50000 -0.50000

  0.50000  0.50000 -0.50000
  0.31437  0.68563 -0.31437

  0.31437  0.68563 -0.31437
  0.00000  0.50000  0.00000

  0.00000  0.50000  0.00000
  0.25000  0.25000  0.25000

  0.25000  0.25000  0.25000
  0.50000  0.50000 -0.12875

  0.50000  0.50000 -0.12875
  0.50000  0.50000 -0.50000

  0.00000  0.00000  0.50000
  0.25000  0.25000  0.25000

