BCT CuFeS2 (Chalcopyrite) 
   1.000000000000000
    -2.6445000000000000    2.6445000000000000    5.2115000000120500
     2.6445000000000000   -2.6445000000000000    5.2115000000120500
     2.6445000000000000    2.6445000000000000   -5.2115000000120500
     Cu    Fe    S
     2     2     4
Direct
   0.0000000000000000  0.0000000000000000  0.0000000000000000
   0.7500000000000000  0.2500000000000000  0.5000000000000000
   0.5000000000000000  0.5000000000000000  0.0000000000000000
   0.2500000000000000  0.7500000000000000  0.5000000000000000
   0.3750000000000000  0.3824000000000000  0.5074000000000000
   0.8750000000000000 -0.1324000000000000  0.4926000000000000
   0.6176000000000000  0.1250000000000000 -0.0074000000000000
   1.1324000000000000  0.6250000000000000  1.0074000000000000
