Si 464d1234db194c6273a923d2d3711a9438247380
5.46890000
1.00000000 0.00000000 0.00000000
0.00000000 1.00000000 0.00000000
0.00000000 0.00000000 1.00000000
Si
8
D
0.00000000 0.00000000 0.00000000
0.25000000 0.25000000 0.25000000
0.00000000 0.50000000 0.50000000
0.25000000 0.75000000 0.75000000
0.50000000 0.00000000 0.50000000
0.75000000 0.25000000 0.75000000
0.50000000 0.50000000 0.00000000
0.75000000 0.75000000 0.25000000
