CUB Cu
 3.610
 1.0 0.0 0.0
 0.0 1.0 0.0
 0.0 0.0 1.0
    1
cartesian
0.00000000000000 0.00000000000000 0.00000000000000
