Al 6b2ff24c4dbba37cf5211410e5e81dbe2ed74
   1.00000000000097     
     8.0803999999999991    0.0000000000000000    0.0000000000000000
     0.0000000000000000    8.0803999999999991    0.0000000000000000
     0.0000000000000000    0.0000000000000000    8.0803999999999991
   Al
    32
Direct
  0.9990865370311960  0.9992940052083392  0.0063591835100356
  0.0029514065535300  0.2381994861437044  0.2464450080051819
  0.2596578718840266  0.0005536492686949  0.2346780496991766
  0.2587338238759420  0.2440258327094002  0.0006734707340310
  0.5257787458970746  0.9936052060524029  0.9931096219690629
  0.4941884982763747  0.2432121659700077  0.2449758721647384
  0.7599204181747504  0.0015238691037165  0.2409822840771639
  0.7443548485517063  0.2667509465204385  0.9902595117179810
  0.9886228274718164  0.5020012154536970  0.0093986965418768
  0.9999822928540971  0.7330193479197883  0.2609548022628154
  0.2456903613223936  0.4973101062931211  0.2470554593965121
  0.2329393027243124  0.7598929676643574  0.0048212490308219
  0.9854099285487176  0.0109963274371194  0.4844549932810039
  0.9988186495294820  0.2291407365863689  0.7633125093718227
  0.2568804531837630  0.0004078458631120  0.7608478096924783
  0.2421744473211752  0.2575995724700247  0.5166741146400771
  0.9794687851534225  0.4793195006525058  0.5065222744875925
  0.0151746444200130  0.7449729504430089  0.7359795390933156
  0.2498462670103529  0.4976959501354128  0.7665637674857991
  0.2599760582666135  0.7658809222913271  0.5150939750533760
  0.4965986888656968  0.4991326810751560  0.0058438717630451
  0.5000361833827863  0.7461473409732792  0.2297036539670070
  0.7493257148187653  0.5041841637794997  0.2645432893844559
  0.7502938574939052  0.7385354669924478  0.0129937976413420
  0.4998605466212194  0.0074084714732532  0.4870087225121069
  0.5016808269252581  0.2541402424673748  0.7506290934181595
  0.7546577139720807  0.0052893380120436  0.7497866367493482
  0.7418092831802313  0.2428119169040057  0.4776406271676517
  0.4973009199932475  0.4993617242770823  0.5087180178678383
  0.5117263988218843  0.7650367716950131  0.7381975374293214
  0.7479832859864529  0.5129226581937082  0.7469713391818266
  0.7490704118877267  0.7596266199705776  0.4988012207030222
 
  0.25073063E-03  0.13157596E-02 -0.14220480E-02
 -0.14878195E-02  0.18547462E-02 -0.19029974E-02
  0.10042030E-02 -0.86920944E-03 -0.22277172E-03
  0.29003537E-02  0.31300433E-02  0.37056322E-02
 -0.69389978E-06  0.18469541E-02  0.27339737E-02
 -0.10016335E-02  0.75644795E-03 -0.47824118E-02
  0.88132226E-04 -0.52862466E-04 -0.26063218E-02
 -0.28966533E-03  0.38624361E-03 -0.50289426E-02
 -0.17562290E-02  0.33692923E-02  0.25279813E-02
 -0.25465383E-02  0.96882071E-03  0.45776340E-02
 -0.33986485E-02 -0.10462089E-02  0.15600976E-02
  0.32148054E-02  0.92401977E-03 -0.73691737E-03
 -0.89066398E-03 -0.35852109E-02 -0.30875726E-02
  0.43391957E-02  0.34960524E-03  0.44672860E-02
 -0.16740232E-03 -0.52443592E-02  0.79816375E-03
 -0.42902432E-02 -0.20487089E-02 -0.18059275E-02
 -0.45661159E-02 -0.25257081E-02  0.84542775E-03
 -0.33671180E-02 -0.43338142E-02  0.23240881E-03
 -0.29672926E-02 -0.22711940E-02 -0.25420253E-03
 -0.24905828E-02 -0.17448436E-03  0.79445006E-03
  0.40599173E-03 -0.11024835E-02 -0.39050918E-02
 -0.27217152E-02  0.32568550E-02  0.21867279E-02
  0.18734592E-02 -0.75965836E-03 -0.53451376E-03
 -0.74467889E-04  0.30820752E-02 -0.12428243E-02
  0.23650131E-02 -0.20990908E-02  0.47521125E-03
  0.45600782E-03  0.74527585E-03  0.22626626E-02
  0.13774059E-02  0.15930558E-02  0.89003236E-03
  0.25364089E-02  0.67618910E-02  0.67725116E-02
  0.13674227E-02  0.15807732E-02 -0.14865048E-02
  0.35350110E-02 -0.65839324E-02 -0.41470728E-02
  0.41378948E-02 -0.44208328E-03 -0.57135915E-03
  0.21647942E-02  0.12171500E-02 -0.10927207E-02
 
           1
   1.00000000000000     
 -0.28213294E+00  0.44480226E-02  0.72501956E-02 -0.28798205E+00
  0.99908654E+00  0.99929401E+00  0.63591835E-02
  0.29514066E-02  0.23819949E+00  0.24644501E+00
  0.25965787E+00  0.55364927E-03  0.23467805E+00
  0.25873382E+00  0.24402583E+00  0.67347073E-03
  0.52577875E+00  0.99360521E+00  0.99310962E+00
  0.49418850E+00  0.24321217E+00  0.24497587E+00
  0.75992042E+00  0.15238691E-02  0.24098228E+00
  0.74435485E+00  0.26675095E+00  0.99025951E+00
  0.98862283E+00  0.50200122E+00  0.93986965E-02
  0.99998229E+00  0.73301935E+00  0.26095480E+00
  0.24569036E+00  0.49731011E+00  0.24705546E+00
  0.23293930E+00  0.75989297E+00  0.48212490E-02
  0.98540993E+00  0.10996327E-01  0.48445499E+00
  0.99881865E+00  0.22914074E+00  0.76331251E+00
  0.25688045E+00  0.40784586E-03  0.76084781E+00
  0.24217445E+00  0.25759957E+00  0.51667411E+00
  0.97946879E+00  0.47931950E+00  0.50652227E+00
  0.15174644E-01  0.74497295E+00  0.73597954E+00
  0.24984627E+00  0.49769595E+00  0.76656377E+00
  0.25997606E+00  0.76588092E+00  0.51509398E+00
  0.49659869E+00  0.49913268E+00  0.58438718E-02
  0.50003618E+00  0.74614734E+00  0.22970365E+00
  0.74932571E+00  0.50418416E+00  0.26454329E+00
  0.75029386E+00  0.73853547E+00  0.12993798E-01
  0.49986055E+00  0.74084715E-02  0.48700872E+00
  0.50168083E+00  0.25414024E+00  0.75062909E+00
  0.75465771E+00  0.52893380E-02  0.74978664E+00
  0.74180928E+00  0.24281192E+00  0.47764063E+00
  0.49730092E+00  0.49936172E+00  0.50871802E+00
  0.51172640E+00  0.76503677E+00  0.73819754E+00
  0.74798329E+00  0.51292266E+00  0.74697134E+00
  0.74907041E+00  0.75962662E+00  0.49880122E+00
  0.00000000E+00  0.00000000E+00  0.00000000E+00
  0.00000000E+00  0.00000000E+00  0.00000000E+00
  0.00000000E+00  0.00000000E+00  0.00000000E+00
  0.00000000E+00  0.00000000E+00  0.00000000E+00
  0.00000000E+00  0.00000000E+00  0.00000000E+00
  0.00000000E+00  0.00000000E+00  0.00000000E+00
  0.00000000E+00  0.00000000E+00  0.00000000E+00
  0.00000000E+00  0.00000000E+00  0.00000000E+00
  0.00000000E+00  0.00000000E+00  0.00000000E+00
  0.00000000E+00  0.00000000E+00  0.00000000E+00
  0.00000000E+00  0.00000000E+00  0.00000000E+00
  0.00000000E+00  0.00000000E+00  0.00000000E+00
  0.00000000E+00  0.00000000E+00  0.00000000E+00
  0.00000000E+00  0.00000000E+00  0.00000000E+00
  0.00000000E+00  0.00000000E+00  0.00000000E+00
  0.00000000E+00  0.00000000E+00  0.00000000E+00
  0.00000000E+00  0.00000000E+00  0.00000000E+00
  0.00000000E+00  0.00000000E+00  0.00000000E+00
  0.00000000E+00  0.00000000E+00  0.00000000E+00
  0.00000000E+00  0.00000000E+00  0.00000000E+00
  0.00000000E+00  0.00000000E+00  0.00000000E+00
  0.00000000E+00  0.00000000E+00  0.00000000E+00
  0.00000000E+00  0.00000000E+00  0.00000000E+00
  0.00000000E+00  0.00000000E+00  0.00000000E+00
  0.00000000E+00  0.00000000E+00  0.00000000E+00
  0.00000000E+00  0.00000000E+00  0.00000000E+00
  0.00000000E+00  0.00000000E+00  0.00000000E+00
  0.00000000E+00  0.00000000E+00  0.00000000E+00
  0.00000000E+00  0.00000000E+00  0.00000000E+00
  0.00000000E+00  0.00000000E+00  0.00000000E+00
  0.00000000E+00  0.00000000E+00  0.00000000E+00
  0.00000000E+00  0.00000000E+00  0.00000000E+00
  0.00000000E+00  0.00000000E+00  0.00000000E+00
  0.00000000E+00  0.00000000E+00  0.00000000E+00
  0.00000000E+00  0.00000000E+00  0.00000000E+00
  0.00000000E+00  0.00000000E+00  0.00000000E+00
  0.00000000E+00  0.00000000E+00  0.00000000E+00
  0.00000000E+00  0.00000000E+00  0.00000000E+00
  0.00000000E+00  0.00000000E+00  0.00000000E+00
  0.00000000E+00  0.00000000E+00  0.00000000E+00
  0.00000000E+00  0.00000000E+00  0.00000000E+00
  0.00000000E+00  0.00000000E+00  0.00000000E+00
  0.00000000E+00  0.00000000E+00  0.00000000E+00
  0.00000000E+00  0.00000000E+00  0.00000000E+00
  0.00000000E+00  0.00000000E+00  0.00000000E+00
  0.00000000E+00  0.00000000E+00  0.00000000E+00
  0.00000000E+00  0.00000000E+00  0.00000000E+00
  0.00000000E+00  0.00000000E+00  0.00000000E+00
  0.00000000E+00  0.00000000E+00  0.00000000E+00
  0.00000000E+00  0.00000000E+00  0.00000000E+00
  0.00000000E+00  0.00000000E+00  0.00000000E+00
  0.00000000E+00  0.00000000E+00  0.00000000E+00
  0.00000000E+00  0.00000000E+00  0.00000000E+00
  0.00000000E+00  0.00000000E+00  0.00000000E+00
  0.00000000E+00  0.00000000E+00  0.00000000E+00
  0.00000000E+00  0.00000000E+00  0.00000000E+00
  0.00000000E+00  0.00000000E+00  0.00000000E+00
  0.00000000E+00  0.00000000E+00  0.00000000E+00
  0.00000000E+00  0.00000000E+00  0.00000000E+00
  0.00000000E+00  0.00000000E+00  0.00000000E+00
  0.00000000E+00  0.00000000E+00  0.00000000E+00
  0.00000000E+00  0.00000000E+00  0.00000000E+00
  0.00000000E+00  0.00000000E+00  0.00000000E+00
  0.00000000E+00  0.00000000E+00  0.00000000E+00
