 SYSTEM = Al

PREC = Accurate
IALGO = 48
ISTART = 0
ICHARG = 2
NCORE = 16
NSIM = 1
ISYM = 0

TEBEG = 300
TEEND = 300

ENCUT = 300
LREAL = .FALSE.

MDALGO = 2
SMASS = 0

ISMEAR = -1
SIGMA = 0.0258519909

LWAVE  = .FALSE.
LCHARG = .FALSE.

NELMDL = -8
NELM   = 60
NELMIN = 4
EDIFF = 1E-5
NSW = 10000
IBRION = 0
ISIF = 2

POTIM = 1.0
