Al 6b2ff24c4dbba37cf5211410e5e81dbe2ed741a9
-527.59245956
8.08040000 0.00000000 0.00000000
0.00000000 8.08040000 0.00000000
0.00000000 0.00000000 8.08040000
Al 
32 
D
0.00000000 0.00000000 0.00000000
0.00000000 0.25000000 0.25000000
0.25000000 0.00000000 0.25000000
0.25000000 0.25000000 0.00000000
0.50000000 0.00000000 0.00000000
0.50000000 0.25000000 0.25000000
0.75000000 0.00000000 0.25000000
0.75000000 0.25000000 0.00000000
0.00000000 0.50000000 0.00000000
0.00000000 0.75000000 0.25000000
0.25000000 0.50000000 0.25000000
0.25000000 0.75000000 0.00000000
0.00000000 0.00000000 0.50000000
0.00000000 0.25000000 0.75000000
0.25000000 0.00000000 0.75000000
0.25000000 0.25000000 0.50000000
0.00000000 0.50000000 0.50000000
0.00000000 0.75000000 0.75000000
0.25000000 0.50000000 0.75000000
0.25000000 0.75000000 0.50000000
0.50000000 0.50000000 0.00000000
0.50000000 0.75000000 0.25000000
0.75000000 0.50000000 0.25000000
0.75000000 0.75000000 0.00000000
0.50000000 0.00000000 0.50000000
0.50000000 0.25000000 0.75000000
0.75000000 0.00000000 0.75000000
0.75000000 0.25000000 0.50000000
0.50000000 0.50000000 0.50000000
0.50000000 0.75000000 0.75000000
0.75000000 0.50000000 0.75000000
0.75000000 0.75000000 0.50000000
