FCC Cu
START   = 0             #  startjob: no WAVECAR file  
ICHARG  = 2             #  charge: from atoms     
INIWAV  = 1             #  random initialization for wf.  
NELM    = 60            #  maximum of 40 electronic steps
NELMIN  = 2             #  minimum of two steps
NELMDL  = -5            #  no update of charge for 3 steps 
EDIFF   = 1E-5          # accuracy for electronic minimization
IALGO   = 38
ISIF    = 4 
IBRION  = -1
ISMEAR  = -5
PREC    = Accurate            
ISPIN   = 1
LORBIT  = 10
LREAL   = .FALSE.       #  real space projection yes / no
MAGMOM  = 1
NCORE   = 16
