# ions
  MDALGO = 2
  NSW = 100000
  SMASS = 0.03 
  IBRION = 0
  TEBEG = 600
  POTIM = 0.25
  ISIF = 2

# electrons
  EDIFF = 1E-6
  LREAL = Auto
  ISMEAR = 0
  SIGMA = 0.2
  ENCUT= 600
  PREC = Accurate
  #NELMIN = 4
  NELM = 150 

  ALGO = Normal

  LORBIT = 10
  LWAVE =.FALSE.
  LCHARG = .FALSE.

  NCORE= 32
  NSIM = 16

