k-points
 0
Monkhorst Pack
 10  10  10
 0  0  0
