BCC Cu
 3.610
  0.5  0.5 -0.5
 -0.5  0.5  0.5
  0.5 -0.5  0.5
    1
cartesian
0.00000000000000 0.00000000000000 0.00000000000000
