TET TiO2 (Rutile)                       
   1.00000000000000     
     4.5922000000000001    0.0000000000000000    0.0000000000000000
     0.0000000000000000    4.5922000000000001    0.0000000000000000
     0.0000000000000000    0.0000000000000000    2.9574000000010501
   O    Ti
     4     2
Direct
  0.3049600000000012  0.3049600000000012  0.0000000000000000
  0.6950399999999988  0.6950399999999988  0.0000000000000000
  0.1950399999999988  0.8049600000000012  0.5000000000000000
  0.8049600000000012  0.1950399999999988  0.5000000000000000
  0.0000000000000000  0.0000000000000000  0.0000000000000000
  0.5000000000000000  0.5000000000000000  0.5000000000000000
 
  0.00000000E+00  0.00000000E+00  0.00000000E+00
  0.00000000E+00  0.00000000E+00  0.00000000E+00
  0.00000000E+00  0.00000000E+00  0.00000000E+00
  0.00000000E+00  0.00000000E+00  0.00000000E+00
  0.00000000E+00  0.00000000E+00  0.00000000E+00
  0.00000000E+00  0.00000000E+00  0.00000000E+00
