k-points for bandstructure G-X-M-G-Z-R-A-Z X-R M-A
 4
line
reciprocal
  0.00000  0.00000  0.00000
  0.00000  0.50000  0.00000

  0.00000  0.50000  0.00000
  0.50000  0.50000  0.00000

  0.50000  0.50000  0.00000
  0.00000  0.00000  0.00000

  0.00000  0.00000  0.00000
  0.00000  0.00000  0.50000

  0.00000  0.00000  0.50000
  0.00000  0.50000  0.50000

  0.00000  0.50000  0.50000
  0.50000  0.50000  0.50000

  0.50000  0.50000  0.50000
  0.00000  0.00000  0.50000

  0.00000  0.50000  0.00000
  0.00000  0.50000  0.50000

  0.50000  0.50000  0.00000
  0.50000  0.50000  0.50000
