TET TiO2 (Rutile) 
   1.000000000000000
     4.5922000000000000    0.0000000000000000    0.0000000000000000
     0.0000000000000000    4.5922000000000000    0.0000000000000000
     0.0000000000000000    0.0000000000000000    2.9574000000010500
     O    Ti
     4     2
Direct
   0.3049600000000000  0.3049600000000000  0.0000000000000000
  -0.3049600000000000 -0.3049600000000000  0.0000000000000000
   0.1950400000000000  0.8049600000000000  0.5000000000000000
   0.8049600000000000  0.1950400000000000  0.5000000000000000
   0.0000000000000000  0.0000000000000000  0.0000000000000000
   0.5000000000000000  0.5000000000000000  0.5000000000000000
