Automatic mesh
0              ! number of k-points = 0 ->automatic generation scheme 
Monkhorst-Pack ! select Monkhorst-Pack (first letter is significant)
5  7  11          ! size of mesh (4x4x4 points along b1, b2, b3)
0. 0. 0.       ! shift of the k-mesh
