O4 P Ti                                 
   0.999998236285
    7.394027532    -7.717130521    -0.000000059
   -0.663744189    -0.635954301    -7.771114738
    4.259149109     4.080825098    -0.697738217
   Ti   P    O 
     8     8    32
Direct
  0.9999991100291084  0.0000626361533023  0.7498802075659441
  0.4999992540859708  0.9999378070257308  0.7501200400347514
  0.4999991100291084  0.9999373408466994  0.2498802075659441
  0.9999992540859708  0.0000621699742780  0.2501200400347514
  0.2500005830670275  0.5003271934900653  0.7494053526358613
  0.7500005811374990  0.4996730377716716  0.7505945413900008
  0.7500005830670275  0.4996728065099347  0.2494053526358613
  0.2500005811374990  0.5003269622283284  0.2505945413900008
  0.2499599504904708  0.1468568565814223  0.0000024838485473
  0.7499599804904662  0.8531431734185801  0.5000024838485544
  0.7500413447347967  0.1460046025508959  0.9999972714479384
  0.2500413447347967  0.8539953974491041  0.4999972714479384
  0.4998037441131657  0.6463442123707139  0.0000005315371965
  0.9998037141131704  0.3536557876292861  0.5000005315371965
  0.0001949549813887  0.6465126364149754  0.9999994555933611
  0.5001949299813901  0.3534873635850246  0.4999994555933611
  0.2499765252299895  0.2533263433082880  0.7878977837046293
  0.7499764911727382  0.7466765059737597  0.7120977520379910
  0.7499765402299943  0.7466736276917061  0.2878978137046317
  0.2499764761727263  0.2533234650262344  0.2120977220379814
  0.7500207658290776  0.2524952509769491  0.7879251201095130
  0.2500207851427163  0.7475016227203213  0.7120800027905574
  0.2500207658290776  0.7475047490230509  0.2879251201095130
  0.7500207851427163  0.2524983772796787  0.2120800177905622
  0.1317148252196105  0.0315896602323278  0.9999999327007032
  0.6317148252196105  0.9684103297676714  0.4999999327007032
  0.6318439845645401  0.0307020549916857  0.0000001889590848
  0.1318439845645401  0.9692979510083148  0.5000001889590848
  0.8681881742855140  0.9684623707442270  0.4999993504171556
  0.3681881742855140  0.0315376292557730  0.9999993504171556
  0.3682760002171150  0.9692080499146272  0.5000007583454931
  0.8682759702171126  0.0307919500853728  0.0000007583454931
  0.4998904315150199  0.7528325897044823  0.7879131098873060
  0.9998908054064941  0.2471684764582420  0.7120855809649385
  0.9998904605150187  0.2471674102955177  0.2879131098873060
  0.4998907764064953  0.7528315235417580  0.2120855809649385
  0.0001122017707758  0.7529941195916408  0.7879090653777183
  0.5001118304771595  0.2470054999336639  0.7120917427140441
  0.5001122187707736  0.2470058804083592  0.2879090953777208
  0.0001118134771616  0.7529945000663361  0.2120917127140416
  0.3815015306647709  0.5312688970522288  0.9999991966482682
  0.8815015006647684  0.4687311029477712  0.4999991966482682
  0.8820370522449252  0.5310636219087215  0.0000006286457506
  0.3820370522449252  0.4689363780912785  0.5000006286457506
  0.1179478609784397  0.4691168123063818  0.5000005127339762
  0.6179478459784349  0.5308832176936207  0.0000005127339762
  0.6184902956416920  0.4685886743990508  0.4999993899092701
  0.1184902956416920  0.5314113556009517  0.9999993899092701
