k-points for bandstructure G-X-M-G-R-X M-R
 4
line
reciprocal
  0.00000  0.00000  0.00000
  0.00000  0.50000  0.00000

  0.00000  0.50000  0.00000
  0.50000  0.50000  0.00000

  0.50000  0.50000  0.00000
  0.00000  0.00000  0.00000

  0.00000  0.00000  0.00000
  0.50000  0.50000  0.50000

  0.50000  0.50000  0.50000
  0.00000  0.50000  0.00000

  0.50000  0.50000  0.00000
  0.50000  0.50000  0.50000
