FCC Cu
4.566799659
    0.00 0.50 0.50
    0.50 0.00 0.50
    0.50 0.50 0.00
Cu
1
direct
 0.00 0.00 0.00
