TiPO4-III_exp
ISTART  = 0
ICHARG  = 11            #  charge: from file

ISMEAR  = -1
SIGMA   = 0.0001

ENCUT   = 520
PREC    = Accurate            

ISPIN   = 2
LORBIT  = 11

LMAXMIX = 4             # For good LDA+U bandstructure

NSW = 0
IBRION = -1

LREAL   = .FALSE.       #  real space projection yes / no
NPAR    = 4
MAGMOM  = 1 -1 1 -1 1 -1 1 -1 40*0.1

LMAXMIX = 4

# Write core charges
# useful/required for Bader analysis
# LAECHG  = .TRUE.
# LELF    = .TRUE.
NEDOS = 1500
