Band structure R - G - M - X - G
150 ! points per line
line ! lines given below
reciprocal ! lines given in reciprocal coordinates

0.50000 0.50000 0.50000 1 ! R - corner point
0.00000 0.00000 0.00000 1 ! Gamma - center point

0.00000 0.00000 0.00000 1 ! Gamma - center point
0.00000 0.50000 0.50000 1 ! M - edge center point

0.00000 0.50000 0.50000 1 ! M - edge center point
0.00000 0.00000 0.50000 1 ! X - face center point

0.00000 0.00000 0.50000 1 ! X - face center point
0.00000 0.00000 0.00000 1 ! Gamma - center point
