O4 P Ti                                 
  0.999998236285414     
    10.7839735495803417    0.0000000000000000    0.0000115056850853
     0.0000000000000000    7.9147184696018149    0.0000000000000000
     0.0000058828178487    0.0000000000000000    5.8201560746352161
   Ti   P    O 
     8     8    32
Direct
  0.9998844297816518  0.0014590001909411  0.7288682898414223
  0.4998828447593624  0.9985376183514774  0.7711576251248715
  0.4998844297816518  0.9985409768090534  0.2288682898414223
  0.9998828447593624  0.0014623586485243  0.2711576251248715
  0.2501006867806339  0.5017513706340253  0.7288181602305528
  0.7501061761154517  0.4982492820220088  0.7711783864562207
  0.7501006867806339  0.4982486293659747  0.2288181602305528
  0.2501061761154517  0.5017507179779912  0.2711783864562207
  0.2435323920899037  0.1532432566925337  0.0000024177793421
  0.7435324220899133  0.8467567733074688  0.5000024177793421
  0.7563438180403779  0.1454593522688512  0.9999977197703132
  0.2563438180403779  0.8545406477311488  0.4999977197703132
  0.4936880846500387  0.6457547258557526  0.9999841119485637
  0.9936880546500433  0.3542452741442474  0.4999841119485637
  0.0064249381330299  0.6529469603505689  0.0000094209189996
  0.5064249131330314  0.3470530396494311  0.5000094209189996
  0.2470208613681280  0.2607688840088187  0.7848506458835729
  0.7470200157193077  0.7392287906926285  0.7151567485678285
  0.7470208763681327  0.7392310869911753  0.2848506758835754
  0.2470200007193029  0.2607711803073656  0.2151567185678260
  0.7527514830775672  0.2536382820081116  0.7855384786233017
  0.2527523262171982  0.7463604352216606  0.7144627874929483
  0.2527514830775672  0.7463617179918884  0.2855384786233017
  0.7527523262171982  0.2536395647783394  0.2144628024929460
  0.1269033145486205  0.0388748065454720  0.9999976535229891
  0.6269033145486205  0.9611251834545271  0.4999976535229891
  0.6382555601036941  0.0300629822625709  0.0000048864940752
  0.1382555601036941  0.9699370237374367  0.5000048864940752
  0.8619258265059386  0.9623303199826054  0.5000085978754001
  0.3619258265059315  0.0376696800173946  0.0000085978754001
  0.3731356807612727  0.9682037638274608  0.4999941962960222
  0.8731356507612702  0.0317962361725392  0.9999941962960222
  0.4972800743313854  0.7539431296002022  0.7855510871979092
  0.9972797430988933  0.2460453388542803  0.7144042915355300
  0.9972801033313843  0.2460568703997978  0.2855510871979092
  0.4972797140988945  0.7539546611457197  0.2144042915355300
  0.0029536299626614  0.7604468986500947  0.7848382111006629
  0.5029530985326289  0.2395646043281303  0.7151851682640213
  0.5029536469626592  0.2395531013499053  0.2848382411006654
  0.0029530815326311  0.7604353956718697  0.2151851382640189
  0.3768426163343008  0.5321918793278186  0.9999888833326835
  0.8768425863342983  0.4678081206721814  0.4999888833326835
  0.8881008782482098  0.5372607081387741  0.0000059329261006
  0.3881008782482027  0.4627392918612259  0.5000059329261006
  0.1117315456649521  0.4697984454572648  0.4999896685878298
  0.6117315306649473  0.5302015845427377  0.9999896685878298
  0.6231290581747899  0.4612478171607179  0.5000066302288317
  0.1231290581747899  0.5387522128392845  0.0000066302288317
 
  0.00000000E+00  0.00000000E+00  0.00000000E+00
  0.00000000E+00  0.00000000E+00  0.00000000E+00
  0.00000000E+00  0.00000000E+00  0.00000000E+00
  0.00000000E+00  0.00000000E+00  0.00000000E+00
  0.00000000E+00  0.00000000E+00  0.00000000E+00
  0.00000000E+00  0.00000000E+00  0.00000000E+00
  0.00000000E+00  0.00000000E+00  0.00000000E+00
  0.00000000E+00  0.00000000E+00  0.00000000E+00
  0.00000000E+00  0.00000000E+00  0.00000000E+00
  0.00000000E+00  0.00000000E+00  0.00000000E+00
  0.00000000E+00  0.00000000E+00  0.00000000E+00
  0.00000000E+00  0.00000000E+00  0.00000000E+00
  0.00000000E+00  0.00000000E+00  0.00000000E+00
  0.00000000E+00  0.00000000E+00  0.00000000E+00
  0.00000000E+00  0.00000000E+00  0.00000000E+00
  0.00000000E+00  0.00000000E+00  0.00000000E+00
  0.00000000E+00  0.00000000E+00  0.00000000E+00
  0.00000000E+00  0.00000000E+00  0.00000000E+00
  0.00000000E+00  0.00000000E+00  0.00000000E+00
  0.00000000E+00  0.00000000E+00  0.00000000E+00
  0.00000000E+00  0.00000000E+00  0.00000000E+00
  0.00000000E+00  0.00000000E+00  0.00000000E+00
  0.00000000E+00  0.00000000E+00  0.00000000E+00
  0.00000000E+00  0.00000000E+00  0.00000000E+00
  0.00000000E+00  0.00000000E+00  0.00000000E+00
  0.00000000E+00  0.00000000E+00  0.00000000E+00
  0.00000000E+00  0.00000000E+00  0.00000000E+00
  0.00000000E+00  0.00000000E+00  0.00000000E+00
  0.00000000E+00  0.00000000E+00  0.00000000E+00
  0.00000000E+00  0.00000000E+00  0.00000000E+00
  0.00000000E+00  0.00000000E+00  0.00000000E+00
  0.00000000E+00  0.00000000E+00  0.00000000E+00
  0.00000000E+00  0.00000000E+00  0.00000000E+00
  0.00000000E+00  0.00000000E+00  0.00000000E+00
  0.00000000E+00  0.00000000E+00  0.00000000E+00
  0.00000000E+00  0.00000000E+00  0.00000000E+00
  0.00000000E+00  0.00000000E+00  0.00000000E+00
  0.00000000E+00  0.00000000E+00  0.00000000E+00
  0.00000000E+00  0.00000000E+00  0.00000000E+00
  0.00000000E+00  0.00000000E+00  0.00000000E+00
  0.00000000E+00  0.00000000E+00  0.00000000E+00
  0.00000000E+00  0.00000000E+00  0.00000000E+00
  0.00000000E+00  0.00000000E+00  0.00000000E+00
  0.00000000E+00  0.00000000E+00  0.00000000E+00
  0.00000000E+00  0.00000000E+00  0.00000000E+00
  0.00000000E+00  0.00000000E+00  0.00000000E+00
  0.00000000E+00  0.00000000E+00  0.00000000E+00
  0.00000000E+00  0.00000000E+00  0.00000000E+00
